p cnf 963 2472
51 -696 -1 0
-51 696 0
-51 1 0
52 -51 -3 0
-52 51 0
-52 3 0
53 -4 -1 0
-53 4 0
-53 1 0
54 -53 -5 0
-54 53 0
-54 5 0
55 -697 -698 0
-55 697 0
-55 698 0
56 -699 -700 0
-56 699 0
-56 700 0
57 -56 -701 0
-57 56 0
-57 701 0
58 -702 -55 0
-58 702 0
-58 55 0
59 -703 -704 0
-59 703 0
-59 704 0
60 -59 -705 0
-60 59 0
-60 705 0
61 -706 -58 0
-61 706 0
-61 58 0
62 -707 -701 0
-62 707 0
-62 701 0
63 -62 -708 0
-63 62 0
-63 708 0
64 -709 -61 0
-64 709 0
-64 61 0
65 -13 -707 0
-65 13 0
-65 707 0
66 -65 -710 0
-66 65 0
-66 710 0
67 -711 -64 0
-67 711 0
-67 64 0
68 -16 -15 0
-68 16 0
-68 15 0
69 -68 -712 0
-69 68 0
-69 712 0
70 -713 -67 0
-70 713 0
-70 67 0
71 -18 -15 0
-71 18 0
-71 15 0
72 -71 -714 0
-72 71 0
-72 714 0
73 -715 -70 0
-73 715 0
-73 70 0
74 -19 -12 0
-74 19 0
-74 12 0
75 -74 -14 0
-75 74 0
-75 14 0
76 -716 -73 0
-76 716 0
-76 73 0
77 -21 -717 0
-77 21 0
-77 717 0
78 -77 -718 0
-78 77 0
-78 718 0
79 -719 -76 0
-79 719 0
-79 76 0
80 -720 -23 0
-80 720 0
-80 23 0
81 -80 -25 0
-81 80 0
-81 25 0
82 -721 -79 0
-82 721 0
-82 79 0
83 -722 -24 0
-83 722 0
-83 24 0
84 -83 -14 0
-84 83 0
-84 14 0
85 -723 -82 0
-85 723 0
-85 82 0
86 -724 -701 0
-86 724 0
-86 701 0
87 -86 -725 0
-87 86 0
-87 725 0
88 -726 -85 0
-88 726 0
-88 85 0
89 -727 -16 0
-89 727 0
-89 16 0
90 -89 -3 0
-90 89 0
-90 3 0
91 -728 -88 0
-91 728 0
-91 88 0
92 -729 -29 0
-92 729 0
-92 29 0
93 -92 -730 0
-93 92 0
-93 730 0
94 -731 -91 0
-94 731 0
-94 91 0
95 -33 -32 0
-95 33 0
-95 32 0
96 -95 -13 0
-96 95 0
-96 13 0
97 -732 -94 0
-97 732 0
-97 94 0
98 -34 -733 0
-98 34 0
-98 733 0
99 -98 -703 0
-99 98 0
-99 703 0
100 -734 -97 0
-100 734 0
-100 97 0
101 -35 -28 0
-101 35 0
-101 28 0
102 -101 -735 0
-102 101 0
-102 735 0
103 -736 -100 0
-103 736 0
-103 100 0
104 -37 -29 0
-104 37 0
-104 29 0
105 -104 -19 0
-105 104 0
-105 19 0
106 -737 -103 0
-106 737 0
-106 103 0
107 -738 -733 0
-107 738 0
-107 733 0
108 -107 -739 0
-108 107 0
-108 739 0
109 -740 -106 0
-109 740 0
-109 106 0
110 -38 -741 0
-110 38 0
-110 741 0
111 -110 -29 0
-111 110 0
-111 29 0
112 -742 -109 0
-112 742 0
-112 109 0
113 -729 -26 0
-113 729 0
-113 26 0
114 -113 -739 0
-114 113 0
-114 739 0
115 -743 -112 0
-115 743 0
-115 112 0
116 -39 -38 0
-116 39 0
-116 38 0
117 -116 -708 0
-117 116 0
-117 708 0
118 -744 -115 0
-118 744 0
-118 115 0
119 -745 -39 0
-119 745 0
-119 39 0
120 -119 -725 0
-120 119 0
-120 725 0
121 -746 -118 0
-121 746 0
-121 118 0
122 -700 -714 0
-122 700 0
-122 714 0
123 -122 -12 0
-123 122 0
-123 12 0
124 -747 -121 0
-124 747 0
-124 121 0
125 -41 -725 0
-125 41 0
-125 725 0
126 -125 -739 0
-126 125 0
-126 739 0
127 -748 -124 0
-127 748 0
-127 124 0
128 -727 -21 0
-128 727 0
-128 21 0
129 -128 -735 0
-129 128 0
-129 735 0
130 -749 -127 0
-130 749 0
-130 127 0
131 -750 -25 0
-131 750 0
-131 25 0
132 -131 -43 0
-132 131 0
-132 43 0
133 -751 -130 0
-133 751 0
-133 130 0
134 -44 -15 0
-134 44 0
-134 15 0
135 -134 -14 0
-135 134 0
-135 14 0
136 -752 -133 0
-136 752 0
-136 133 0
137 -738 -9 0
-137 738 0
-137 9 0
138 -137 -724 0
-138 137 0
-138 724 0
139 -753 -136 0
-139 753 0
-139 136 0
140 -29 -701 0
-140 29 0
-140 701 0
141 -140 -754 0
-141 140 0
-141 754 0
142 -755 -139 0
-142 755 0
-142 139 0
143 -756 -725 0
-143 756 0
-143 725 0
144 -143 -735 0
-144 143 0
-144 735 0
145 -757 -142 0
-145 757 0
-145 142 0
146 -37 -758 0
-146 37 0
-146 758 0
147 -146 -701 0
-147 146 0
-147 701 0
148 -759 -145 0
-148 759 0
-148 145 0
149 -701 -1 0
-149 701 0
-149 1 0
150 -149 -14 0
-150 149 0
-150 14 0
151 -760 -148 0
-151 760 0
-151 148 0
152 -761 -729 0
-152 761 0
-152 729 0
153 -152 -42 0
-153 152 0
-153 42 0
154 -762 -151 0
-154 762 0
-154 151 0
155 -763 -20 0
-155 763 0
-155 20 0
156 -155 -1 0
-156 155 0
-156 1 0
157 -764 -154 0
-157 764 0
-157 154 0
158 -45 -765 0
-158 45 0
-158 765 0
159 -158 -696 0
-159 158 0
-159 696 0
160 -766 -157 0
-160 766 0
-160 157 0
161 -750 -714 0
-161 750 0
-161 714 0
162 -161 -727 0
-162 161 0
-162 727 0
163 -767 -160 0
-163 767 0
-163 160 0
164 -768 -20 0
-164 768 0
-164 20 0
165 -164 -11 0
-165 164 0
-165 11 0
166 -769 -163 0
-166 769 0
-166 163 0
167 -745 -741 0
-167 745 0
-167 741 0
168 -167 -43 0
-168 167 0
-168 43 0
169 -770 -166 0
-169 770 0
-169 166 0
170 -46 -16 0
-170 46 0
-170 16 0
171 -170 -36 0
-171 170 0
-171 36 0
172 -771 -169 0
-172 771 0
-172 169 0
173 -15 -10 0
-173 15 0
-173 10 0
174 -173 -735 0
-174 173 0
-174 735 0
175 -772 -172 0
-175 772 0
-175 172 0
176 -18 -1 0
-176 18 0
-176 1 0
177 -176 -773 0
-177 176 0
-177 773 0
178 -774 -175 0
-178 774 0
-178 175 0
179 -765 -16 0
-179 765 0
-179 16 0
180 -179 -701 0
-180 179 0
-180 701 0
181 -775 -178 0
-181 775 0
-181 178 0
182 -724 -3 0
-182 724 0
-182 3 0
183 -182 -739 0
-183 182 0
-183 739 0
184 -776 -181 0
-184 776 0
-184 181 0
185 -25 -701 0
-185 25 0
-185 701 0
186 -185 -43 0
-186 185 0
-186 43 0
187 -777 -184 0
-187 777 0
-187 184 0
188 -733 -31 0
-188 733 0
-188 31 0
189 -188 -778 0
-189 188 0
-189 778 0
190 -779 -187 0
-190 779 0
-190 187 0
191 -31 -7 0
-191 31 0
-191 7 0
192 -191 -720 0
-192 191 0
-192 720 0
193 -780 -190 0
-193 780 0
-193 190 0
194 -24 -703 0
-194 24 0
-194 703 0
195 -194 -754 0
-195 194 0
-195 754 0
196 -781 -193 0
-196 781 0
-196 193 0
197 -30 -23 0
-197 30 0
-197 23 0
198 -197 -708 0
-198 197 0
-198 708 0
199 -782 -196 0
-199 782 0
-199 196 0
200 -761 -23 0
-200 761 0
-200 23 0
201 -200 -745 0
-201 200 0
-201 745 0
202 -783 -199 0
-202 783 0
-202 199 0
203 -763 -700 0
-203 763 0
-203 700 0
204 -203 -754 0
-204 203 0
-204 754 0
205 -784 -202 0
-205 784 0
-205 202 0
206 -712 -785 0
-206 712 0
-206 785 0
207 -206 -28 0
-207 206 0
-207 28 0
208 -786 -205 0
-208 786 0
-208 205 0
209 -758 -4 0
-209 758 0
-209 4 0
210 -209 -739 0
-210 209 0
-210 739 0
211 -787 -208 0
-211 787 0
-211 208 0
212 -788 -16 0
-212 788 0
-212 16 0
213 -212 -21 0
-213 212 0
-213 21 0
214 -789 -211 0
-214 789 0
-214 211 0
215 -29 -21 0
-215 29 0
-215 21 0
216 -215 -703 0
-216 215 0
-216 703 0
217 -790 -214 0
-217 790 0
-217 214 0
218 -730 -1 0
-218 730 0
-218 1 0
219 -218 -725 0
-219 218 0
-219 725 0
220 -791 -217 0
-220 791 0
-220 217 0
221 -49 -20 0
-221 49 0
-221 20 0
222 -221 -754 0
-222 221 0
-222 754 0
223 -792 -220 0
-223 792 0
-223 220 0
224 -48 -2 0
-224 48 0
-224 2 0
225 -224 -35 0
-225 224 0
-225 35 0
226 -793 -223 0
-226 793 0
-226 223 0
227 -788 -761 0
-227 788 0
-227 761 0
228 -227 -696 0
-228 227 0
-228 696 0
229 -794 -226 0
-229 794 0
-229 226 0
230 -745 -21 0
-230 745 0
-230 21 0
231 -230 -701 0
-231 230 0
-231 701 0
232 -795 -229 0
-232 795 0
-232 229 0
233 -796 -763 0
-233 796 0
-233 763 0
234 -233 -720 0
-234 233 0
-234 720 0
235 -797 -232 0
-235 797 0
-235 232 0
236 -733 -700 0
-236 733 0
-236 700 0
237 -236 -47 0
-237 236 0
-237 47 0
238 -798 -235 0
-238 798 0
-238 235 0
239 -49 -5 0
-239 49 0
-239 5 0
240 -239 -28 0
-240 239 0
-240 28 0
241 -799 -238 0
-241 799 0
-241 238 0
242 -796 -800 0
-242 796 0
-242 800 0
243 -242 -8 0
-243 242 0
-243 8 0
244 -801 -241 0
-244 801 0
-244 241 0
245 -705 -3 0
-245 705 0
-245 3 0
246 -245 -735 0
-246 245 0
-246 735 0
247 -802 -244 0
-247 802 0
-247 244 0
248 -42 -16 0
-248 42 0
-248 16 0
249 -248 -7 0
-249 248 0
-249 7 0
250 -803 -247 0
-250 803 0
-250 247 0
251 -707 -9 0
-251 707 0
-251 9 0
252 -251 -3 0
-252 251 0
-252 3 0
253 -804 -250 0
-253 804 0
-253 250 0
254 -26 -21 0
-254 26 0
-254 21 0
255 -254 -35 0
-255 254 0
-255 35 0
256 -805 -253 0
-256 805 0
-256 253 0
257 -26 -707 0
-257 26 0
-257 707 0
258 -257 -773 0
-258 257 0
-258 773 0
259 -806 -256 0
-259 806 0
-259 256 0
260 -761 -37 0
-260 761 0
-260 37 0
261 -260 -8 0
-261 260 0
-261 8 0
262 -807 -259 0
-262 807 0
-262 259 0
263 -48 -5 0
-263 48 0
-263 5 0
264 -263 -40 0
-264 263 0
-264 40 0
265 -808 -262 0
-265 808 0
-265 262 0
266 -254 -720 0
-266 254 0
-266 720 0
267 -809 -265 0
-267 809 0
-267 265 0
268 -38 -765 0
-268 38 0
-268 765 0
269 -268 -710 0
-269 268 0
-269 710 0
270 -810 -267 0
-270 810 0
-270 267 0
271 -30 -811 0
-271 30 0
-271 811 0
272 -271 -2 0
-272 271 0
-272 2 0
273 -812 -270 0
-273 812 0
-273 270 0
274 -37 -7 0
-274 37 0
-274 7 0
275 -274 -26 0
-275 274 0
-275 26 0
276 -813 -273 0
-276 813 0
-276 273 0
277 -763 -37 0
-277 763 0
-277 37 0
278 -277 -745 0
-278 277 0
-278 745 0
279 -814 -276 0
-279 814 0
-279 276 0
280 -32 -714 0
-280 32 0
-280 714 0
281 -280 -815 0
-281 280 0
-281 815 0
282 -816 -279 0
-282 816 0
-282 279 0
283 -758 -765 0
-283 758 0
-283 765 0
284 -283 -733 0
-284 283 0
-284 733 0
285 -817 -282 0
-285 817 0
-285 282 0
286 -818 -758 0
-286 818 0
-286 758 0
287 -286 -24 0
-287 286 0
-287 24 0
288 -819 -285 0
-288 819 0
-288 285 0
289 -49 -718 0
-289 49 0
-289 718 0
290 -289 -705 0
-290 289 0
-290 705 0
291 -820 -288 0
-291 820 0
-291 288 0
292 -761 -768 0
-292 761 0
-292 768 0
293 -292 -13 0
-293 292 0
-293 13 0
294 -821 -291 0
-294 821 0
-294 291 0
295 -738 -19 0
-295 738 0
-295 19 0
296 -295 -822 0
-296 295 0
-296 822 0
297 -823 -294 0
-297 823 0
-297 294 0
298 -745 -38 0
-298 745 0
-298 38 0
299 -298 -24 0
-299 298 0
-299 24 0
300 -824 -297 0
-300 824 0
-300 297 0
301 -796 -1 0
-301 796 0
-301 1 0
302 -301 -714 0
-302 301 0
-302 714 0
303 -825 -300 0
-303 825 0
-303 300 0
304 -18 -785 0
-304 18 0
-304 785 0
305 -304 -720 0
-305 304 0
-305 720 0
306 -826 -303 0
-306 826 0
-306 303 0
307 -761 -827 0
-307 761 0
-307 827 0
308 -307 -828 0
-308 307 0
-308 828 0
309 -829 -306 0
-309 829 0
-309 306 0
310 -49 -12 0
-310 49 0
-310 12 0
311 -310 -24 0
-311 310 0
-311 24 0
312 -830 -309 0
-312 830 0
-312 309 0
313 -750 -37 0
-313 750 0
-313 37 0
314 -313 -14 0
-314 313 0
-314 14 0
315 -831 -312 0
-315 831 0
-315 312 0
316 -6 -822 0
-316 6 0
-316 822 0
317 -316 -725 0
-317 316 0
-317 725 0
318 -832 -315 0
-318 832 0
-318 315 0
319 -31 -701 0
-319 31 0
-319 701 0
320 -319 -47 0
-320 319 0
-320 47 0
321 -833 -318 0
-321 833 0
-321 318 0
322 -41 -19 0
-322 41 0
-322 19 0
323 -322 -720 0
-323 322 0
-323 720 0
324 -834 -321 0
-324 834 0
-324 321 0
325 -835 -703 0
-325 835 0
-325 703 0
326 -325 -773 0
-326 325 0
-326 773 0
327 -836 -324 0
-327 836 0
-327 324 0
328 -741 -9 0
-328 741 0
-328 9 0
329 -328 -10 0
-329 328 0
-329 10 0
330 -837 -327 0
-330 837 0
-330 327 0
331 -778 -1 0
-331 778 0
-331 1 0
332 -331 -28 0
-332 331 0
-332 28 0
333 -838 -330 0
-333 838 0
-333 330 0
334 -26 -8 0
-334 26 0
-334 8 0
335 -334 -35 0
-335 334 0
-335 35 0
336 -839 -333 0
-336 839 0
-336 333 0
337 -724 -840 0
-337 724 0
-337 840 0
338 -337 -718 0
-338 337 0
-338 718 0
339 -841 -336 0
-339 841 0
-339 336 0
340 -21 -811 0
-340 21 0
-340 811 0
341 -340 -703 0
-341 340 0
-341 703 0
342 -842 -339 0
-342 842 0
-342 339 0
343 -758 -835 0
-343 758 0
-343 835 0
344 -343 -815 0
-344 343 0
-344 815 0
345 -843 -342 0
-345 843 0
-345 342 0
346 -48 -758 0
-346 48 0
-346 758 0
347 -346 -835 0
-347 346 0
-347 835 0
348 -844 -345 0
-348 844 0
-348 345 0
349 -28 -27 0
-349 28 0
-349 27 0
350 -349 -43 0
-350 349 0
-350 43 0
351 -845 -348 0
-351 845 0
-351 348 0
352 -10 -6 0
-352 10 0
-352 6 0
353 -352 -735 0
-353 352 0
-353 735 0
354 -846 -351 0
-354 846 0
-354 351 0
355 -128 -708 0
-355 128 0
-355 708 0
356 -847 -354 0
-356 847 0
-356 354 0
357 -12 -5 0
-357 12 0
-357 5 0
358 -357 -34 0
-358 357 0
-358 34 0
359 -848 -356 0
-359 848 0
-359 356 0
360 -152 -708 0
-360 152 0
-360 708 0
361 -849 -359 0
-361 849 0
-361 359 0
362 -741 -835 0
-362 741 0
-362 835 0
363 -362 -10 0
-363 362 0
-363 10 0
364 -850 -361 0
-364 850 0
-364 361 0
365 -700 -827 0
-365 700 0
-365 827 0
366 -365 -24 0
-366 365 0
-366 24 0
367 -851 -364 0
-367 851 0
-367 364 0
368 -828 -712 0
-368 828 0
-368 712 0
369 -368 -710 0
-369 368 0
-369 710 0
370 -852 -367 0
-370 852 0
-370 367 0
371 -718 -696 0
-371 718 0
-371 696 0
372 -371 -3 0
-372 371 0
-372 3 0
373 -853 -370 0
-373 853 0
-373 370 0
374 -761 -738 0
-374 761 0
-374 738 0
375 -374 -44 0
-375 374 0
-375 44 0
376 -854 -373 0
-376 854 0
-376 373 0
377 -738 -30 0
-377 738 0
-377 30 0
378 -377 -19 0
-378 377 0
-378 19 0
379 -855 -376 0
-379 855 0
-379 376 0
380 -39 -725 0
-380 39 0
-380 725 0
381 -380 -754 0
-381 380 0
-381 754 0
382 -856 -379 0
-382 856 0
-382 379 0
383 -729 -857 0
-383 729 0
-383 857 0
384 -383 -811 0
-384 383 0
-384 811 0
385 -858 -382 0
-385 858 0
-385 382 0
386 -714 -822 0
-386 714 0
-386 822 0
387 -386 -754 0
-387 386 0
-387 754 0
388 -859 -385 0
-388 859 0
-388 385 0
389 -9 -6 0
-389 9 0
-389 6 0
390 -389 -773 0
-390 389 0
-390 773 0
391 -860 -388 0
-391 860 0
-391 388 0
392 -29 -724 0
-392 29 0
-392 724 0
393 -392 -703 0
-393 392 0
-393 703 0
394 -861 -391 0
-394 861 0
-394 391 0
395 -761 -724 0
-395 761 0
-395 724 0
396 -395 -24 0
-396 395 0
-396 24 0
397 -862 -394 0
-397 862 0
-397 394 0
398 -761 -34 0
-398 761 0
-398 34 0
399 -398 -3 0
-399 398 0
-399 3 0
400 -863 -397 0
-400 863 0
-400 397 0
401 -741 -840 0
-401 741 0
-401 840 0
402 -401 -704 0
-402 401 0
-402 704 0
403 -864 -400 0
-403 864 0
-403 400 0
404 -773 -23 0
-404 773 0
-404 23 0
405 -404 -739 0
-405 404 0
-405 739 0
406 -865 -403 0
-406 865 0
-406 403 0
407 -39 -700 0
-407 39 0
-407 700 0
408 -407 -745 0
-408 407 0
-408 745 0
409 -866 -406 0
-409 866 0
-409 406 0
410 -41 -38 0
-410 41 0
-410 38 0
411 -410 -712 0
-411 410 0
-411 712 0
412 -867 -409 0
-412 867 0
-412 409 0
413 -38 -16 0
-413 38 0
-413 16 0
414 -413 -727 0
-414 413 0
-414 727 0
415 -868 -412 0
-415 868 0
-415 412 0
416 -19 -10 0
-416 19 0
-416 10 0
417 -416 -31 0
-417 416 0
-417 31 0
418 -869 -415 0
-418 869 0
-418 415 0
419 -756 -717 0
-419 756 0
-419 717 0
420 -419 -773 0
-420 419 0
-420 773 0
421 -870 -418 0
-421 870 0
-421 418 0
422 -33 -17 0
-422 33 0
-422 17 0
423 -422 -47 0
-423 422 0
-423 47 0
424 -871 -421 0
-424 871 0
-424 421 0
425 -37 -6 0
-425 37 0
-425 6 0
426 -425 -36 0
-426 425 0
-426 36 0
427 -872 -424 0
-427 872 0
-427 424 0
428 -738 -15 0
-428 738 0
-428 15 0
429 -428 -28 0
-429 428 0
-429 28 0
430 -873 -427 0
-430 873 0
-430 427 0
431 -750 -785 0
-431 750 0
-431 785 0
432 -431 -3 0
-432 431 0
-432 3 0
433 -874 -430 0
-433 874 0
-433 430 0
434 -727 -704 0
-434 727 0
-434 704 0
435 -434 -40 0
-435 434 0
-435 40 0
436 -875 -433 0
-436 875 0
-436 433 0
437 -42 -724 0
-437 42 0
-437 724 0
438 -437 -14 0
-438 437 0
-438 14 0
439 -876 -436 0
-439 876 0
-439 436 0
440 -738 -35 0
-440 738 0
-440 35 0
441 -440 -14 0
-441 440 0
-441 14 0
442 -877 -439 0
-442 877 0
-442 439 0
443 -727 -701 0
-443 727 0
-443 701 0
444 -443 -778 0
-444 443 0
-444 778 0
445 -878 -442 0
-445 878 0
-445 442 0
446 -32 -700 0
-446 32 0
-446 700 0
447 -446 -773 0
-447 446 0
-447 773 0
448 -879 -445 0
-448 879 0
-448 445 0
449 -788 -765 0
-449 788 0
-449 765 0
450 -449 -745 0
-450 449 0
-450 745 0
451 -880 -448 0
-451 880 0
-451 448 0
452 -818 -707 0
-452 818 0
-452 707 0
453 -452 -13 0
-453 452 0
-453 13 0
454 -881 -451 0
-454 881 0
-454 451 0
455 -738 -27 0
-455 738 0
-455 27 0
456 -455 -857 0
-456 455 0
-456 857 0
457 -882 -454 0
-457 882 0
-457 454 0
458 -796 -29 0
-458 796 0
-458 29 0
459 -458 -14 0
-459 458 0
-459 14 0
460 -883 -457 0
-460 883 0
-460 457 0
461 -50 -756 0
-461 50 0
-461 756 0
462 -461 -19 0
-462 461 0
-462 19 0
463 -884 -460 0
-463 884 0
-463 460 0
464 -761 -16 0
-464 761 0
-464 16 0
465 -464 -827 0
-465 464 0
-465 827 0
466 -885 -463 0
-466 885 0
-466 463 0
467 -41 -768 0
-467 41 0
-467 768 0
468 -467 -17 0
-468 467 0
-468 17 0
469 -886 -466 0
-469 886 0
-469 466 0
470 -33 -1 0
-470 33 0
-470 1 0
471 -470 -22 0
-471 470 0
-471 22 0
472 -887 -469 0
-472 887 0
-472 469 0
473 -11 -703 0
-473 11 0
-473 703 0
474 -473 -828 0
-474 473 0
-474 828 0
475 -888 -472 0
-475 888 0
-475 472 0
476 -26 -827 0
-476 26 0
-476 827 0
477 -476 -28 0
-477 476 0
-477 28 0
478 -889 -475 0
-478 889 0
-478 475 0
479 -48 -33 0
-479 48 0
-479 33 0
480 -479 -43 0
-480 479 0
-480 43 0
481 -890 -478 0
-481 890 0
-481 478 0
482 -18 -5 0
-482 18 0
-482 5 0
483 -482 -36 0
-483 482 0
-483 36 0
484 -891 -481 0
-484 891 0
-484 481 0
485 -45 -712 0
-485 45 0
-485 712 0
486 -485 -708 0
-486 485 0
-486 708 0
487 -892 -484 0
-487 892 0
-487 484 0
488 -32 -7 0
-488 32 0
-488 7 0
489 -488 -735 0
-489 488 0
-489 735 0
490 -893 -487 0
-490 893 0
-490 487 0
491 -818 -22 0
-491 818 0
-491 22 0
492 -491 -701 0
-492 491 0
-492 701 0
493 -894 -490 0
-493 894 0
-493 490 0
494 -53 -857 0
-494 53 0
-494 857 0
495 -895 -493 0
-495 895 0
-495 493 0
496 -48 -727 0
-496 48 0
-496 727 0
497 -496 -2 0
-497 496 0
-497 2 0
498 -896 -495 0
-498 896 0
-498 495 0
499 -729 -701 0
-499 729 0
-499 701 0
500 -499 -47 0
-500 499 0
-500 47 0
501 -897 -498 0
-501 897 0
-501 498 0
502 -761 -15 0
-502 761 0
-502 15 0
503 -502 -768 0
-503 502 0
-503 768 0
504 -898 -501 0
-504 898 0
-504 501 0
505 -32 -827 0
-505 32 0
-505 827 0
506 -505 -722 0
-506 505 0
-506 722 0
507 -899 -504 0
-507 899 0
-507 504 0
508 -800 -700 0
-508 800 0
-508 700 0
509 -508 -11 0
-509 508 0
-509 11 0
510 -900 -507 0
-510 900 0
-510 507 0
511 -756 -727 0
-511 756 0
-511 727 0
512 -511 -745 0
-512 511 0
-512 745 0
513 -901 -510 0
-513 901 0
-513 510 0
514 -482 -25 0
-514 482 0
-514 25 0
515 -902 -513 0
-515 902 0
-515 513 0
516 -10 -840 0
-516 10 0
-516 840 0
517 -516 -35 0
-517 516 0
-517 35 0
518 -903 -515 0
-518 903 0
-518 515 0
519 -37 -23 0
-519 37 0
-519 23 0
520 -519 -773 0
-520 519 0
-520 773 0
521 -904 -518 0
-521 904 0
-521 518 0
522 -818 -26 0
-522 818 0
-522 26 0
523 -522 -696 0
-523 522 0
-523 696 0
524 -905 -521 0
-524 905 0
-524 521 0
525 -17 -2 0
-525 17 0
-525 2 0
526 -525 -710 0
-526 525 0
-526 710 0
527 -906 -524 0
-527 906 0
-527 524 0
528 -37 -703 0
-528 37 0
-528 703 0
529 -528 -35 0
-529 528 0
-529 35 0
530 -907 -527 0
-530 907 0
-530 527 0
531 -750 -699 0
-531 750 0
-531 699 0
532 -531 -708 0
-532 531 0
-532 708 0
533 -908 -530 0
-533 908 0
-533 530 0
534 -773 -717 0
-534 773 0
-534 717 0
535 -534 -47 0
-535 534 0
-535 47 0
536 -909 -533 0
-536 909 0
-536 533 0
537 -756 -857 0
-537 756 0
-537 857 0
538 -537 -13 0
-538 537 0
-538 13 0
539 -910 -536 0
-539 910 0
-539 536 0
540 -37 -701 0
-540 37 0
-540 701 0
541 -540 -13 0
-541 540 0
-541 13 0
542 -911 -539 0
-542 911 0
-542 539 0
543 -371 -35 0
-543 371 0
-543 35 0
544 -912 -542 0
-544 912 0
-544 542 0
545 -41 -840 0
-545 41 0
-545 840 0
546 -545 -40 0
-546 545 0
-546 40 0
547 -913 -544 0
-547 913 0
-547 544 0
548 -761 -703 0
-548 761 0
-548 703 0
549 -548 -40 0
-549 548 0
-549 40 0
550 -914 -547 0
-550 914 0
-550 547 0
551 -768 -701 0
-551 768 0
-551 701 0
552 -551 -710 0
-552 551 0
-552 710 0
553 -915 -550 0
-553 915 0
-553 550 0
554 -763 -758 0
-554 763 0
-554 758 0
555 -554 -765 0
-555 554 0
-555 765 0
556 -916 -553 0
-556 916 0
-556 553 0
557 -35 -717 0
-557 35 0
-557 717 0
558 -557 -735 0
-558 557 0
-558 735 0
559 -917 -556 0
-559 917 0
-559 556 0
560 -818 -765 0
-560 818 0
-560 765 0
561 -560 -47 0
-561 560 0
-561 47 0
562 -918 -559 0
-562 918 0
-562 559 0
563 -31 -835 0
-563 31 0
-563 835 0
564 -563 -8 0
-564 563 0
-564 8 0
565 -919 -562 0
-565 919 0
-565 562 0
566 -33 -18 0
-566 33 0
-566 18 0
567 -566 -46 0
-567 566 0
-567 46 0
568 -920 -565 0
-568 920 0
-568 565 0
569 -20 -703 0
-569 20 0
-569 703 0
570 -569 -828 0
-570 569 0
-570 828 0
571 -921 -568 0
-571 921 0
-571 568 0
572 -796 -18 0
-572 796 0
-572 18 0
573 -572 -754 0
-573 572 0
-573 754 0
574 -922 -571 0
-574 922 0
-574 571 0
575 -29 -700 0
-575 29 0
-575 700 0
576 -575 -26 0
-576 575 0
-576 26 0
577 -923 -574 0
-577 923 0
-577 574 0
578 -724 -4 0
-578 724 0
-578 4 0
579 -578 -822 0
-579 578 0
-579 822 0
580 -924 -577 0
-580 924 0
-580 577 0
581 -722 -20 0
-581 722 0
-581 20 0
582 -581 -725 0
-582 581 0
-582 725 0
583 -925 -580 0
-583 925 0
-583 580 0
584 -756 -32 0
-584 756 0
-584 32 0
585 -584 -23 0
-585 584 0
-585 23 0
586 -926 -583 0
-586 926 0
-586 583 0
587 -32 -12 0
-587 32 0
-587 12 0
588 -587 -36 0
-588 587 0
-588 36 0
589 -927 -586 0
-589 927 0
-589 586 0
590 -16 -4 0
-590 16 0
-590 4 0
591 -590 -768 0
-591 590 0
-591 768 0
592 -928 -589 0
-592 928 0
-592 589 0
593 -286 -735 0
-593 286 0
-593 735 0
594 -929 -592 0
-594 929 0
-594 592 0
595 -796 -48 0
-595 796 0
-595 48 0
596 -595 -701 0
-596 595 0
-596 701 0
597 -930 -594 0
-597 930 0
-597 594 0
598 -800 -699 0
-598 800 0
-598 699 0
599 -598 -40 0
-599 598 0
-599 40 0
600 -931 -597 0
-600 931 0
-600 597 0
601 -44 -707 0
-601 44 0
-601 707 0
602 -601 -720 0
-602 601 0
-602 720 0
603 -932 -600 0
-603 932 0
-603 600 0
604 -13 -2 0
-604 13 0
-604 2 0
605 -604 -14 0
-605 604 0
-605 14 0
606 -933 -603 0
-606 933 0
-606 603 0
607 -44 -40 0
-607 44 0
-607 40 0
608 -607 -828 0
-608 607 0
-608 828 0
609 -934 -606 0
-609 934 0
-609 606 0
610 -729 -700 0
-610 729 0
-610 700 0
611 -610 -10 0
-611 610 0
-611 10 0
612 -935 -609 0
-612 935 0
-612 609 0
613 -9 -1 0
-613 9 0
-613 1 0
614 -613 -745 0
-614 613 0
-614 745 0
615 -936 -612 0
-615 936 0
-615 612 0
616 -796 -4 0
-616 796 0
-616 4 0
617 -616 -33 0
-617 616 0
-617 33 0
618 -937 -615 0
-618 937 0
-618 615 0
619 -46 -741 0
-619 46 0
-619 741 0
620 -619 -705 0
-620 619 0
-620 705 0
621 -938 -618 0
-621 938 0
-621 618 0
622 -800 -30 0
-622 800 0
-622 30 0
623 -622 -18 0
-623 622 0
-623 18 0
624 -939 -621 0
-624 939 0
-624 621 0
625 -29 -28 0
-625 29 0
-625 28 0
626 -625 -739 0
-626 625 0
-626 739 0
627 -940 -624 0
-627 940 0
-627 624 0
628 -5 -1 0
-628 5 0
-628 1 0
629 -628 -815 0
-629 628 0
-629 815 0
630 -941 -627 0
-630 941 0
-630 627 0
631 -741 -2 0
-631 741 0
-631 2 0
632 -631 -28 0
-632 631 0
-632 28 0
633 -942 -630 0
-633 942 0
-633 630 0
634 -38 -21 0
-634 38 0
-634 21 0
635 -634 -720 0
-635 634 0
-635 720 0
636 -943 -633 0
-636 943 0
-636 633 0
637 -763 -24 0
-637 763 0
-637 24 0
638 -637 -43 0
-638 637 0
-638 43 0
639 -944 -636 0
-639 944 0
-639 636 0
640 -352 -822 0
-640 352 0
-640 822 0
641 -945 -639 0
-641 945 0
-641 639 0
642 -12 -7 0
-642 12 0
-642 7 0
643 -642 -720 0
-643 642 0
-643 720 0
644 -946 -641 0
-644 946 0
-644 641 0
645 -19 -712 0
-645 19 0
-645 712 0
646 -645 -703 0
-646 645 0
-646 703 0
647 -947 -644 0
-647 947 0
-647 644 0
648 -45 -857 0
-648 45 0
-648 857 0
649 -648 -24 0
-649 648 0
-649 24 0
650 -948 -647 0
-650 948 0
-650 647 0
651 -763 -729 0
-651 763 0
-651 729 0
652 -651 -700 0
-652 651 0
-652 700 0
653 -949 -650 0
-653 949 0
-653 650 0
654 -37 -26 0
-654 37 0
-654 26 0
655 -654 -35 0
-655 654 0
-655 35 0
656 -950 -653 0
-656 950 0
-656 653 0
657 -39 -1 0
-657 39 0
-657 1 0
658 -657 -768 0
-658 657 0
-658 768 0
659 -951 -656 0
-659 951 0
-659 656 0
660 -6 -714 0
-660 6 0
-660 714 0
661 -660 -47 0
-661 660 0
-661 47 0
662 -952 -659 0
-662 952 0
-662 659 0
663 -49 -39 0
-663 49 0
-663 39 0
664 -663 -720 0
-664 663 0
-664 720 0
665 -953 -662 0
-665 953 0
-665 662 0
666 -739 -23 0
-666 739 0
-666 23 0
667 -666 -754 0
-667 666 0
-667 754 0
668 -954 -665 0
-668 954 0
-668 665 0
669 -729 -24 0
-669 729 0
-669 24 0
670 -669 -696 0
-670 669 0
-670 696 0
671 -955 -668 0
-671 955 0
-671 668 0
672 -818 -714 0
-672 818 0
-672 714 0
673 -672 -718 0
-673 672 0
-673 718 0
674 -956 -671 0
-674 956 0
-674 671 0
675 -768 -10 0
-675 768 0
-675 10 0
676 -675 -725 0
-676 675 0
-676 725 0
677 -957 -674 0
-677 957 0
-677 674 0
678 -796 -785 0
-678 796 0
-678 785 0
679 -678 -27 0
-679 678 0
-679 27 0
680 -958 -677 0
-680 958 0
-680 677 0
681 -735 -14 0
-681 735 0
-681 14 0
682 -681 -754 0
-682 681 0
-682 754 0
683 -959 -680 0
-683 959 0
-683 680 0
684 -20 -700 0
-684 20 0
-684 700 0
685 -684 -735 0
-685 684 0
-685 735 0
686 -960 -683 0
-686 960 0
-686 683 0
687 -46 -727 0
-687 46 0
-687 727 0
688 -687 -24 0
-688 687 0
-688 24 0
689 -961 -686 0
-689 961 0
-689 686 0
690 -48 -699 0
-690 48 0
-690 699 0
691 -690 -701 0
-691 690 0
-691 701 0
692 -962 -689 0
-692 962 0
-692 689 0
693 -763 -23 0
-693 763 0
-693 23 0
694 -693 -3 0
-694 693 0
-694 3 0
695 -963 -692 0
-695 963 0
-695 692 0
-696 -2 0
696 2 0
-697 -54 0
697 54 0
-698 -52 0
698 52 0
-699 -7 0
699 7 0
-700 -6 0
700 6 0
-701 -8 0
701 8 0
-702 -57 0
702 57 0
-703 -10 0
703 10 0
-704 -9 0
704 9 0
-705 -11 0
705 11 0
-706 -60 0
706 60 0
-707 -12 0
707 12 0
-708 -13 0
708 13 0
-709 -63 0
709 63 0
-710 -14 0
710 14 0
-711 -66 0
711 66 0
-712 -17 0
712 17 0
-713 -69 0
713 69 0
-714 -5 0
714 5 0
-715 -72 0
715 72 0
-716 -75 0
716 75 0
-717 -20 0
717 20 0
-718 -22 0
718 22 0
-719 -78 0
719 78 0
-720 -24 0
720 24 0
-721 -81 0
721 81 0
-722 -26 0
722 26 0
-723 -84 0
723 84 0
-724 -27 0
724 27 0
-725 -28 0
725 28 0
-726 -87 0
726 87 0
-727 -29 0
727 29 0
-728 -90 0
728 90 0
-729 -30 0
729 30 0
-730 -31 0
730 31 0
-731 -93 0
731 93 0
-732 -96 0
732 96 0
-733 -33 0
733 33 0
-734 -99 0
734 99 0
-735 -36 0
735 36 0
-736 -102 0
736 102 0
-737 -105 0
737 105 0
-738 -37 0
738 37 0
-739 -25 0
739 25 0
-740 -108 0
740 108 0
-741 -18 0
741 18 0
-742 -111 0
742 111 0
-743 -114 0
743 114 0
-744 -117 0
744 117 0
-745 -40 0
745 40 0
-746 -120 0
746 120 0
-747 -123 0
747 123 0
-748 -126 0
748 126 0
-749 -129 0
749 129 0
-750 -42 0
750 42 0
-751 -132 0
751 132 0
-752 -135 0
752 135 0
-753 -138 0
753 138 0
-754 -43 0
754 43 0
-755 -141 0
755 141 0
-756 -41 0
756 41 0
-757 -144 0
757 144 0
-758 -32 0
758 32 0
-759 -147 0
759 147 0
-760 -150 0
760 150 0
-761 -45 0
761 45 0
-762 -153 0
762 153 0
-763 -38 0
763 38 0
-764 -156 0
764 156 0
-765 -21 0
765 21 0
-766 -159 0
766 159 0
-767 -162 0
767 162 0
-768 -34 0
768 34 0
-769 -165 0
769 165 0
-770 -168 0
770 168 0
-771 -171 0
771 171 0
-772 -174 0
772 174 0
-773 -44 0
773 44 0
-774 -177 0
774 177 0
-775 -180 0
775 180 0
-776 -183 0
776 183 0
-777 -186 0
777 186 0
-778 -47 0
778 47 0
-779 -189 0
779 189 0
-780 -192 0
780 192 0
-781 -195 0
781 195 0
-782 -198 0
782 198 0
-783 -201 0
783 201 0
-784 -204 0
784 204 0
-785 -15 0
785 15 0
-786 -207 0
786 207 0
-787 -210 0
787 210 0
-788 -48 0
788 48 0
-789 -213 0
789 213 0
-790 -216 0
790 216 0
-791 -219 0
791 219 0
-792 -222 0
792 222 0
-793 -225 0
793 225 0
-794 -228 0
794 228 0
-795 -231 0
795 231 0
-796 -49 0
796 49 0
-797 -234 0
797 234 0
-798 -237 0
798 237 0
-799 -240 0
799 240 0
-800 -39 0
800 39 0
-801 -243 0
801 243 0
-802 -246 0
802 246 0
-803 -249 0
803 249 0
-804 -252 0
804 252 0
-805 -255 0
805 255 0
-806 -258 0
806 258 0
-807 -261 0
807 261 0
-808 -264 0
808 264 0
-809 -266 0
809 266 0
-810 -269 0
810 269 0
-811 -19 0
811 19 0
-812 -272 0
812 272 0
-813 -275 0
813 275 0
-814 -278 0
814 278 0
-815 -46 0
815 46 0
-816 -281 0
816 281 0
-817 -284 0
817 284 0
-818 -50 0
818 50 0
-819 -287 0
819 287 0
-820 -290 0
820 290 0
-821 -293 0
821 293 0
-822 -3 0
822 3 0
-823 -296 0
823 296 0
-824 -299 0
824 299 0
-825 -302 0
825 302 0
-826 -305 0
826 305 0
-827 -1 0
827 1 0
-828 -35 0
828 35 0
-829 -308 0
829 308 0
-830 -311 0
830 311 0
-831 -314 0
831 314 0
-832 -317 0
832 317 0
-833 -320 0
833 320 0
-834 -323 0
834 323 0
-835 -16 0
835 16 0
-836 -326 0
836 326 0
-837 -329 0
837 329 0
-838 -332 0
838 332 0
-839 -335 0
839 335 0
-840 -4 0
840 4 0
-841 -338 0
841 338 0
-842 -341 0
842 341 0
-843 -344 0
843 344 0
-844 -347 0
844 347 0
-845 -350 0
845 350 0
-846 -353 0
846 353 0
-847 -355 0
847 355 0
-848 -358 0
848 358 0
-849 -360 0
849 360 0
-850 -363 0
850 363 0
-851 -366 0
851 366 0
-852 -369 0
852 369 0
-853 -372 0
853 372 0
-854 -375 0
854 375 0
-855 -378 0
855 378 0
-856 -381 0
856 381 0
-857 -23 0
857 23 0
-858 -384 0
858 384 0
-859 -387 0
859 387 0
-860 -390 0
860 390 0
-861 -393 0
861 393 0
-862 -396 0
862 396 0
-863 -399 0
863 399 0
-864 -402 0
864 402 0
-865 -405 0
865 405 0
-866 -408 0
866 408 0
-867 -411 0
867 411 0
-868 -414 0
868 414 0
-869 -417 0
869 417 0
-870 -420 0
870 420 0
-871 -423 0
871 423 0
-872 -426 0
872 426 0
-873 -429 0
873 429 0
-874 -432 0
874 432 0
-875 -435 0
875 435 0
-876 -438 0
876 438 0
-877 -441 0
877 441 0
-878 -444 0
878 444 0
-879 -447 0
879 447 0
-880 -450 0
880 450 0
-881 -453 0
881 453 0
-882 -456 0
882 456 0
-883 -459 0
883 459 0
-884 -462 0
884 462 0
-885 -465 0
885 465 0
-886 -468 0
886 468 0
-887 -471 0
887 471 0
-888 -474 0
888 474 0
-889 -477 0
889 477 0
-890 -480 0
890 480 0
-891 -483 0
891 483 0
-892 -486 0
892 486 0
-893 -489 0
893 489 0
-894 -492 0
894 492 0
-895 -494 0
895 494 0
-896 -497 0
896 497 0
-897 -500 0
897 500 0
-898 -503 0
898 503 0
-899 -506 0
899 506 0
-900 -509 0
900 509 0
-901 -512 0
901 512 0
-902 -514 0
902 514 0
-903 -517 0
903 517 0
-904 -520 0
904 520 0
-905 -523 0
905 523 0
-906 -526 0
906 526 0
-907 -529 0
907 529 0
-908 -532 0
908 532 0
-909 -535 0
909 535 0
-910 -538 0
910 538 0
-911 -541 0
911 541 0
-912 -543 0
912 543 0
-913 -546 0
913 546 0
-914 -549 0
914 549 0
-915 -552 0
915 552 0
-916 -555 0
916 555 0
-917 -558 0
917 558 0
-918 -561 0
918 561 0
-919 -564 0
919 564 0
-920 -567 0
920 567 0
-921 -570 0
921 570 0
-922 -573 0
922 573 0
-923 -576 0
923 576 0
-924 -579 0
924 579 0
-925 -582 0
925 582 0
-926 -585 0
926 585 0
-927 -588 0
927 588 0
-928 -591 0
928 591 0
-929 -593 0
929 593 0
-930 -596 0
930 596 0
-931 -599 0
931 599 0
-932 -602 0
932 602 0
-933 -605 0
933 605 0
-934 -608 0
934 608 0
-935 -611 0
935 611 0
-936 -614 0
936 614 0
-937 -617 0
937 617 0
-938 -620 0
938 620 0
-939 -623 0
939 623 0
-940 -626 0
940 626 0
-941 -629 0
941 629 0
-942 -632 0
942 632 0
-943 -635 0
943 635 0
-944 -638 0
944 638 0
-945 -640 0
945 640 0
-946 -643 0
946 643 0
-947 -646 0
947 646 0
-948 -649 0
948 649 0
-949 -652 0
949 652 0
-950 -655 0
950 655 0
-951 -658 0
951 658 0
-952 -661 0
952 661 0
-953 -664 0
953 664 0
-954 -667 0
954 667 0
-955 -670 0
955 670 0
-956 -673 0
956 673 0
-957 -676 0
957 676 0
-958 -679 0
958 679 0
-959 -682 0
959 682 0
-960 -685 0
960 685 0
-961 -688 0
961 688 0
-962 -691 0
962 691 0
-963 -694 0
963 694 0
695 0
